38114
0 0 1 0 1 0 1 0 0 0 1 0 0 1 1 0 1 1 1 1 0 0 1 1 1 1 0 0 1 1 
18 19 2 18 2 6 2 10 22 28 4 28 23 10 19 18 13 14 16 22 18 16 2 24 23 18 16 28 29 2 6 29 4 16 22 22 14 14 24 16 18 19 6 29 14 4 13 16 14 17 24 16 24 16 14 6 18 14 18 25 29 17 22 10 13 22 17 17 28 29 18 6 6 10 23 23 13 17 29 24 23 10 14 25 4 23 19 2 22 18 28 6 25 25 2 13 22 6 10 28 28 16 25 18 4 10 4 24 16 19 29 4 18 22 22 10 28 22 17 13 29 22 28 4 19 16 2 25 29 17 22 24 25 13 23 29 10 13 28 14 25 22 28 25 25 19 24 16 10 25 24 17 23 17 10 25 2 16 19 13 13 10 23 24 23 14 10 4 13 22 13 14 19 17 4 2 14 14 29 13 22 16 24 19 6 10 28 23 10 2 2 22 6 4 25 6 22 22 23 14 